CMPL model generation - running

CMPL version: 1.11.0
Authors: Thomas Schleiff, Mike Steglich
Distributed under the GPLv3 

create model instance ...
write model instance ...
CMPL model generation - finished

Solver - running


Welcome to IBM(R) ILOG(R) CPLEX(R) Interactive Optimizer 12.7.1.0
  with Simplex, Mixed Integer & Barrier Optimizers
5725-A06 5725-A29 5724-Y48 5724-Y49 5724-Y54 5724-Y55 5655-Y21
Copyright IBM Corp. 1988, 2017.  All Rights Reserved.

Type 'help' for a list of available commands.
Type 'help' followed by a command name for more
information on commands.

CPLEX> Specified objective sense: MINIMIZE
Selected objective  name:  line[1]
Selected RHS        name:  RHS
Selected bound      name:  BOUND
Problem '/tmp/cmpl.T23832.mps' read.
Read time = 0.05 sec. (8.17 ticks)
CPLEX> CPXPARAM_Read_APIEncoding                        "UTF-8"
Tried aggregator 3 times.
MIP Presolve eliminated 19261 rows and 30749 columns.
MIP Presolve modified 340 coefficients.
Aggregator did 618 substitutions.
Reduced MIP has 2476 rows, 3226 columns, and 9422 nonzeros.
Reduced MIP has 3058 binaries, 0 generals, 0 SOSs, and 0 indicators.
Presolve time = 0.05 sec. (41.77 ticks)
Found incumbent of value 484.839898 after 0.08 sec. (60.09 ticks)
Probing fixed 6 vars, tightened 0 bounds.
Probing time = 0.01 sec. (4.17 ticks)
Tried aggregator 1 time.
MIP Presolve eliminated 0 rows and 6 columns.
MIP Presolve modified 30 coefficients.
Reduced MIP has 2476 rows, 3220 columns, and 9410 nonzeros.
Reduced MIP has 3220 binaries, 0 generals, 0 SOSs, and 0 indicators.
Presolve time = 0.01 sec. (8.00 ticks)
Probing time = 0.01 sec. (2.67 ticks)
Clique table members: 5875.
MIP emphasis: balance optimality and feasibility.
MIP search method: dynamic search.
Parallel mode: none, using 1 thread.
Root relaxation solution time = 0.00 sec. (4.36 ticks)

        Nodes                                         Cuts/
   Node  Left     Objective  IInf  Best Integer    Best Bound    ItCnt     Gap

*     0+    0                          484.8399      -48.4510           109.99%
      0     0       93.7723    21      484.8399       93.7723       93   80.66%
*     0+    0                          119.6754       93.7723            21.64%
*     0+    0                           94.3723       93.7723             0.64%
*     0     0      integral     0       94.3133      Cuts: 18      105    0.00%
      0     0        cutoff             94.3133       94.3133      105    0.00%
Elapsed time = 0.14 sec. (100.01 ticks, tree = 0.01 MB, solutions = 4)

GUB cover cuts applied:  1
Cover cuts applied:  11
Gomory fractional cuts applied:  6

Root node processing (before b&c):
  Real time             =    0.14 sec. (101.73 ticks)
Sequential b&c:
  Real time             =    0.00 sec. (0.00 ticks)
                          ------------
Total (root+branch&cut) =    0.14 sec. (101.73 ticks)

Solution pool: 4 solutions saved.

MIP - Integer optimal solution:  Objective =  9.4313315000e+01
Solution time =    0.14 sec.  Iterations = 105  Nodes = 0
Deterministic time = 101.83 ticks  (724.23 ticks/sec)

CPLEX> Incumbent solution written to file '/tmp/cmpl.T23832.gsol'.
CPLEX> 
CMPL: Time used for model generation: 1 seconds
CMPL: Time used for solving the model: 1 seconds


Solution written to ASCII file: results/output_generated_conf_0.3/2016-03-07-4/fair-nonlinear.sol

Solver - finished
